c preprocessed version of FolkmanGraph, 20 vertices, 40 edges
p td 20 40
0 1
0 15
0 19
0 5
1 14
1 16
1 2
10 11
10 17
11 12
11 16
11 18
12 13
12 17
13 14
14 15
15 16
16 17
17 18
18 19
2 15
2 3
2 9
3 10
3 4
3 8
4 19
4 5
4 9
5 18
5 6
6 13
6 19
6 7
7 12
7 14
7 8
8 13
8 9
9 10
